
--- Job put.gms Start 03/13/22 21:25:03 38.1.0 a1a3b545 DEX-DEG x86 64bit/Mac OS X
--- Applying:
    /Library/Frameworks/GAMS.framework/Versions/38/Resources/gmsprmun.txt
--- GAMS Parameters defined
    Input /Users/patrickocal_mchome/Documents/_uq-aibe/spir-oz/code/cai-judd-gams/RBC_Case2/put.gms
    PageSize 0
    ScrDir /Users/patrickocal_mchome/Documents/_uq-aibe/spir-oz/code/cai-judd-gams/RBC_Case2/225a/
    SysDir /Library/Frameworks/GAMS.framework/Versions/38/Resources/
    LogOption 3
    ErrMsg 1
    ErrorLog 99
    IDE 1
    LstTitleLeftAligned 1
Licensee: GAMS Demo license for Patrick OCallaghan       G220215|0002CO-GEN
          University of Queensland, Australia                      DL060418
          /Users/patrickocal_mchome/Library/Application Support/GAMS/gamslice.txt
          p.ocallaghan@uq.edu.au, Patrick OCallaghan                       
          Demo license for demonstration and instructional purposes only
Processor information: 1 socket(s), 6 core(s), and 6 thread(s) available
GAMS 38.1.0   Copyright (C) 1987-2022 GAMS Development. All rights reserved
--- Starting compilation
--- put.gms(80) 3 Mb
--- Starting execution: elapsed 0:00:00.003
--- put.gms(43) 4 Mb
--- Generating LP model transport
--- put.gms(64) 4 Mb
---   6 rows  7 columns  19 non-zeroes
--- Executing CPLEX (Solvelink=2): elapsed 0:00:00.125

IBM ILOG CPLEX   38.1.0 a1a3b545 Jan 31, 2022          DEG x86 64bit/Mac OS X 

--- *** This solver runs with a demo license. No commercial use.
--- GMO setup time: 0.00s
--- GMO memory 0.50 Mb (peak 0.50 Mb)
--- Dictionary memory 0.00 Mb
--- Cplex 20.1.0.1 link memory 0.00 Mb (peak 0.00 Mb)
--- Starting Cplex

Version identifier: 20.1.0.1 | 2021-04-07 | 3a818710c
CPXPARAM_Advance                                 0
CPXPARAM_Simplex_Display                         2
CPXPARAM_Threads                                 1
CPXPARAM_MIP_Display                             4
CPXPARAM_MIP_Pool_Capacity                       0
CPXPARAM_MIP_Tolerances_AbsMIPGap                0
Tried aggregator 1 time.
LP Presolve eliminated 0 rows and 1 columns.
Reduced LP has 5 rows, 6 columns, and 12 nonzeros.
Presolve time = 0.00 sec. (0.00 ticks)

Iteration      Dual Objective            In Variable           Out Variable
     1              73.125000    x(seattle,new-york) demand(new-york) slack
     2             119.025000     x(seattle,chicago)  demand(chicago) slack
     3             153.675000    x(san-diego,topeka)   demand(topeka) slack
     4             153.675000  x(san-diego,new-york)  supply(seattle) slack

--- LP status (1): optimal.
--- Cplex Time: 0.00sec (det. 0.01 ticks)


Optimal solution found
Objective:          153.675000

--- Reading solution for model transport
--- Executing after solve: elapsed 0:00:00.529
--- put.gms(80) 4 Mb
--- Putfile factors /Users/patrickocal_mchome/Documents/_uq-aibe/spir-oz/code/cai-judd-gams/RBC_Case2/factors.dat
--- Putfile results /Users/patrickocal_mchome/Documents/_uq-aibe/spir-oz/code/cai-judd-gams/RBC_Case2/results.dat
*** Status: Normal completion
--- Job put.gms Stop 03/13/22 21:25:04 elapsed 0:00:00.530
